# Solution for model GasLib-40
# Objective value = 1.2779319380598343e+01
loadshed[innode_1] 0
loadshed[innode_2] 0
loadshed[innode_3] 0
loadshed[innode_4] 0
loadshed[innode_5] 0
loadshed[innode_6] 0
loadshed[innode_7] 0
loadshed[innode_8] 0
loadshed[source_1] -2.0645508962910575e-01
loadshed[source_2] -3.6912467473472654e-02
loadshed[source_3] 3.2420313763430253e-01
loadshed[sink_1] 0
loadshed[sink_2] 0
loadshed[sink_3] 0
loadshed[sink_4] 0
loadshed[sink_5] 0
loadshed[sink_6] 0
loadshed[sink_7] 0
loadshed[sink_8] 0
loadshed[sink_9] 0
loadshed[sink_10] 0
loadshed[sink_11] 0
loadshed[sink_12] 7.8141061180728721e-01
loadshed[sink_13] 0
loadshed[sink_14] 0
loadshed[sink_15] 0
loadshed[sink_16] 0
loadshed[sink_17] 0
loadshed[sink_18] 0
loadshed[sink_19] 0
loadshed[sink_20] 0
loadshed[sink_21] 0
loadshed[sink_22] 0
loadshed[sink_23] 0
loadshed[sink_24] 0
loadshed[sink_25] 0
loadshed[sink_26] 0
loadshed[sink_27] 0
loadshed[sink_28] 0
loadshed[sink_29] 0
flow[source_1,sink_3] 1.9072882024587909e+02
flow[innode_1,sink_16] 1.6354166666666970e+01
flow[innode_6,sink_13] 7.6422529739237568e+00
flow[sink_13,sink_14] -8.7119136927429111e+00
flow[sink_14,sink_10] -2.5066080359409398e+01
flow[sink_25,sink_26] 2.1617901395273691e+02
flow[sink_26,sink_9] 1.2892481640594073e+02
flow[sink_9,sink_18] 1.1257064973927406e+02
flow[sink_26,sink_4] 7.0900030880129464e+01
flow[sink_4,sink_20] 0
flow[sink_18,sink_6] 9.6216483072607389e+01
flow[sink_25,innode_8] -1.5802048691254271e+02
flow[sink_6,sink_7] 4.7153983072606934e+01
flow[sink_6,sink_22] 3.2708333333333641e+01
flow[sink_7,sink_24] 3.6283180619401662e+01
flow[sink_22,sink_1] 1.6354166666666970e+01
flow[sink_24,sink_21] 1.9929013952734991e+01
flow[sink_21,sink_12] 3.5748472860683242e+00
flow[sink_7,sink_5] -5.4833642134612575e+00
flow[sink_5,sink_17] -2.1837530880127929e+01
flow[sink_17,sink_4] -5.4545864213462892e+01
flow[sink_17,sink_8] 1.6354166666668334e+01
flow[sink_3,sink_23] 16.3541666666697
flow[sink_8,sink_20] 0
flow[sink_25,sink_20] 1.6354166666668618e+01
flow[sink_25,sink_15] -9.8509113347454360e+01
flow[sink_15,sink_29] -6.3892038389872290e+01
flow[sink_29,sink_28] 1.6354166666667879e+01
flow[sink_29,sink_2] 6.7325408290915419e+01
flow[sink_2,sink_15] 5.0971241624248748e+01
flow[sink_29,innode_7] -1.6392578001412227e+02
flow[innode_4,sink_19] 4.0901495088561305e+01
flow[sink_19,innode_3] 0
flow[innode_4,innode_5] 6.5935418604182459e+01
flow[sink_27,innode_5] -6.5935418604182459e+01
flow[sink_27,sink_19] 4.9581251937515795e+01
flow[sink_10,sink_11] 3.2708333333333641e+01
flow[sink_10,innode_2] -7.4128580359410122e+01
flow[sink_10,innode_3] 0
flow[innode_6,sink_25] -7.6422529739237568e+00
flow[sink_11,innode_1] 1.6354166666666970e+01
flow[sink_19,innode_2] 7.4128580359410122e+01
flow[source_3,innode_4] 1.0683691369274376e+02
flow[source_2,innode_7] 1.6392578001412227e+02
flow[sink_3,innode_8] 1.5802048691254271e+02
pressure[innode_1] 7.5286523275696510e+01
pressure[innode_2] 79.3562262163589
pressure[innode_3] 79.3562262163589
pressure[innode_4] 81.01325
pressure[innode_5] 8.0967896142298656e+01
pressure[innode_6] 7.4279173930598446e+01
pressure[innode_7] 81.01325
pressure[innode_8] 8.0375716414968281e+01
pressure[source_1] 81.01325
pressure[source_2] 81.01325
pressure[source_3] 81.01325
pressure[sink_1] 4.2593844116765261e+01
pressure[sink_2] 74.923448989787
pressure[sink_3] 8.0375716414968281e+01
pressure[sink_4] 5.0039399509230485e+01
pressure[sink_5] 4.6328098234056839e+01
pressure[sink_6] 4.4694921727152632e+01
pressure[sink_7] 4.4047609937649788e+01
pressure[sink_8] 4.7337751243005854e+01
pressure[sink_9] 5.1337329925114673e+01
pressure[sink_10] 7.5438224583300055e+01
pressure[sink_11] 7.5286523275696510e+01
pressure[sink_12] 1.01325
pressure[sink_13] 7.4237043467092320e+01
pressure[sink_14] 7.4252634178736443e+01
pressure[sink_15] 7.4757039119764542e+01
pressure[sink_16] 7.4264873440878830e+01
pressure[sink_17] 4.7954836438419477e+01
pressure[sink_18] 4.7264188299308834e+01
pressure[sink_19] 79.3562262163589
pressure[sink_20] 7.0380390602432215e+01
pressure[sink_21] 2.2853763165371839e+00
pressure[sink_22] 4.3657613259120268e+01
pressure[sink_23] 80.2109984033085
pressure[sink_24] 2.5060716298014691e+00
pressure[sink_25] 7.4279173930598446e+01
pressure[sink_26] 5.9053812932801705e+01
pressure[sink_27] 8.0420754003437267e+01
pressure[sink_28] 7.6333595289510455e+01
pressure[sink_29] 7.6628877563127645e+01
interdiction[source_1,sink_3] 0
interdiction[innode_1,sink_16] 0
interdiction[innode_6,sink_13] 0
interdiction[sink_13,sink_14] 0
interdiction[sink_14,sink_10] 0
interdiction[sink_25,sink_26] 0
interdiction[sink_26,sink_9] 0
interdiction[sink_9,sink_18] 0
interdiction[sink_26,sink_4] 0
interdiction[sink_4,sink_20] 1
interdiction[sink_18,sink_6] 0
interdiction[sink_25,innode_8] 0
interdiction[sink_6,sink_7] 0
interdiction[sink_6,sink_22] 0
interdiction[sink_7,sink_24] 0
interdiction[sink_22,sink_1] 0
interdiction[sink_24,sink_21] 0
interdiction[sink_21,sink_12] 0
interdiction[sink_7,sink_5] 0
interdiction[sink_5,sink_17] 0
interdiction[sink_17,sink_4] 0
interdiction[sink_17,sink_8] 0
interdiction[sink_3,sink_23] 0
interdiction[sink_8,sink_20] 1
interdiction[sink_25,sink_20] 0
interdiction[sink_25,sink_15] 0
interdiction[sink_15,sink_29] 0
interdiction[sink_29,sink_28] 0
interdiction[sink_29,sink_2] 0
interdiction[sink_2,sink_15] 0
interdiction[sink_29,innode_7] 0
interdiction[innode_4,sink_19] 0
interdiction[sink_19,innode_3] 0
interdiction[innode_4,innode_5] 0
interdiction[sink_27,innode_5] 0
interdiction[sink_27,sink_19] 0
interdiction[sink_10,sink_11] 0
interdiction[sink_10,innode_2] 0
interdiction[sink_10,innode_3] 1
interdiction[innode_6,sink_25] 0
interdiction[sink_11,innode_1] 0
interdiction[sink_19,innode_2] 0
interdiction[source_3,innode_4] 0
interdiction[source_2,innode_7] 0
interdiction[sink_3,innode_8] 0
WCcheckFlow[source_1,sink_3] 39
WCcheckFlow[innode_1,sink_16] 1
WCcheckFlow[innode_6,sink_13] 13
WCcheckFlow[sink_13,sink_14] 12
WCcheckFlow[sink_14,sink_10] 11
WCcheckFlow[sink_25,sink_26] 14
WCcheckFlow[sink_26,sink_9] 12
WCcheckFlow[sink_9,sink_18] 11
WCcheckFlow[sink_26,sink_4] 1
WCcheckFlow[sink_4,sink_20] 0
WCcheckFlow[sink_18,sink_6] 10
WCcheckFlow[sink_25,innode_8] -36
WCcheckFlow[sink_6,sink_7] 7
WCcheckFlow[sink_6,sink_22] 2
WCcheckFlow[sink_7,sink_24] 3
WCcheckFlow[sink_22,sink_1] 1
WCcheckFlow[sink_24,sink_21] 2
WCcheckFlow[sink_21,sink_12] 1
WCcheckFlow[sink_7,sink_5] 3
WCcheckFlow[sink_5,sink_17] 2
WCcheckFlow[sink_17,sink_4] 0
WCcheckFlow[sink_17,sink_8] 1
WCcheckFlow[sink_3,sink_23] 1
WCcheckFlow[sink_8,sink_20] 0
WCcheckFlow[sink_25,sink_20] 1
WCcheckFlow[sink_25,sink_15] 6
WCcheckFlow[sink_15,sink_29] 5
WCcheckFlow[sink_29,sink_28] 1
WCcheckFlow[sink_29,sink_2] 1
WCcheckFlow[sink_2,sink_15] 0
WCcheckFlow[sink_29,innode_7] 2
WCcheckFlow[innode_4,sink_19] -4
WCcheckFlow[sink_19,innode_3] 1
WCcheckFlow[innode_4,innode_5] 2
WCcheckFlow[sink_27,innode_5] -1
WCcheckFlow[sink_27,sink_19] 0
WCcheckFlow[sink_10,sink_11] 3
WCcheckFlow[sink_10,innode_2] 7
WCcheckFlow[sink_10,innode_3] 0
WCcheckFlow[innode_6,sink_25] -14
WCcheckFlow[sink_11,innode_1] 2
WCcheckFlow[sink_19,innode_2] -6
WCcheckFlow[source_3,innode_4] -1
WCcheckFlow[source_2,innode_7] -1
WCcheckFlow[sink_3,innode_8] 37
